(set-logic QF_S)
(declare-fun var_0xINPUT_278559 () String)
(assert (and (= (len var_0xINPUT_278559) 0) (= (len var_0xINPUT_278559) 0) (not (= var_0xINPUT_278559 "Example:")) (= (len var_0xINPUT_278559) 0) (not (= var_0xINPUT_278559 "Example:")) (not (= var_0xINPUT_278559 "ywUN4ZIDAC"))))
(check-sat var_0xINPUT_278559)